100 78181

 864 365
730 300
785 7
368 761
251 428
859 117
856 580
931 507
686 546
170 706
758 325
935 55
90 778
561 992
446 42
294 297
919 973
150 231
132 453
433 890
59 394
969 522
836 358
199 987
215 444
898 128
561 691
472 405
744 392
247 193
382 604
991 881
239 743
927 78
367 85
168 30
560 725
51 49
811 777
610 145
951 69
728 58
689 697
380 574
474 479
80 820
697 445
367 296
461 678
911 171
539 575
452 147
464 484
960 306
478 673
926 653
420 846
707 609
214 446
369 221
854 555
114 945
754 804
503 378
636 620
817 266
588 95
311 262
469 825
824 897
708 71
863 954
44 219
415 533
698 92
855 127
246 80
949 824
84 238
207 983
151 372
668 916
528 486
165 694
917 25
975 156
145 517
37 632
333 789
403 530
414 943
45 710
402 57
206 605
62 19
420 384
868 865
468 193
820 237
19 387
